nN = 8;
nR = 24;
nH = 1;

a = [[17, 15, 21, 16, 15, 25, 15, 15, 24, 23, 17, 18, 25, 24, 24, 22, 17, 22, 19, 24, 25, 21, 23, 21], [17, 21, 19, 17, 20, 16, 19, 23, 22, 23, 22, 16, 18, 24, 17, 15, 20, 22, 20, 24, 19, 19, 19, 25], [23, 18, 25, 24, 20, 17, 23, 19, 22, 24, 24, 24, 15, 25, 24, 18, 21, 24, 24, 16, 16, 15, 20, 19], [15, 23, 24, 19, 22, 19, 22, 24, 24, 21, 22, 18, 21, 22, 19, 19, 23, 21, 20, 18, 15, 16, 15, 19], [17, 21, 22, 20, 25, 16, 21, 16, 21, 19, 22, 25, 19, 19, 18, 23, 16, 15, 25, 15, 20, 25, 18, 17], [20, 20, 23, 18, 22, 25, 15, 19, 15, 16, 25, 25, 23, 22, 16, 21, 17, 22, 17, 19, 16, 25, 15, 18], [21, 18, 22, 15, 24, 23, 24, 20, 21, 24, 16, 16, 18, 17, 17, 19, 20, 24, 17, 20, 16, 22, 16, 21], [25, 16, 25, 16, 15, 22, 21, 19, 15, 21, 21, 18, 21, 17, 17, 19, 18, 22, 20, 16, 16, 18, 25, 15]];
c = [[[0, 0, 0, 0, 0, 0, 0, 0, 0, 0, 0, 0, 0, 0, 0, 0, 0, 0, 0, 0, 0, 0, 0, 0], [45, 49, 49, 31, 31, 46, 30, 37, 39, 36, 37, 31, 32, 50, 35, 47, 49, 37, 44, 33, 30, 31, 43, 46], [49, 44, 43, 45, 41, 43, 35, 42, 39, 48, 31, 46, 39, 38, 31, 47, 37, 39, 38, 32, 35, 37, 42, 35], [35, 43, 45, 33, 39, 42, 42, 47, 41, 37, 41, 39, 32, 37, 44, 42, 34, 31, 43, 40, 49, 49, 49, 49], [34, 33, 34, 48, 38, 43, 49, 40, 44, 30, 41, 31, 44, 37, 30, 48, 42, 50, 43, 35, 48, 38, 34, 37], [41, 31, 46, 44, 30, 50, 50, 31, 47, 32, 35, 36, 47, 44, 43, 47, 42, 44, 45, 47, 40, 45, 39, 30], [33, 34, 32, 42, 39, 34, 44, 44, 42, 43, 41, 44, 46, 47, 41, 44, 48, 36, 41, 30, 33, 47, 30, 49], [30, 49, 44, 37, 41, 46, 34, 36, 47, 35, 49, 37, 43, 40, 44, 49, 41, 42, 46, 30, 31, 43, 31, 49]], [[0, 0, 0, 0, 0, 0, 0, 0, 0, 0, 0, 0, 0, 0, 0, 0, 0, 0, 0, 0, 0, 0, 0, 0], [0, 0, 0, 0, 0, 0, 0, 0, 0, 0, 0, 0, 0, 0, 0, 0, 0, 0, 0, 0, 0, 0, 0, 0], [37, 39, 42, 39, 37, 31, 34, 30, 39, 40, 34, 44, 33, 36, 46, 49, 50, 36, 46, 39, 50, 43, 40, 50], [44, 31, 48, 42, 49, 46, 46, 47, 38, 50, 45, 30, 45, 41, 34, 46, 30, 40, 34, 41, 43, 40, 30, 38], [43, 36, 47, 47, 49, 36, 48, 41, 50, 31, 36, 44, 32, 50, 43, 39, 46, 50, 46, 49, 40, 34, 44, 41], [49, 49, 38, 34, 50, 30, 31, 42, 47, 41, 43, 32, 40, 31, 33, 36, 48, 46, 38, 50, 41, 46, 43, 49], [42, 40, 34, 34, 34, 41, 49, 41, 31, 50, 43, 48, 35, 32, 50, 43, 34, 34, 45, 36, 48, 33, 32, 34], [50, 33, 34, 50, 38, 39, 36, 33, 42, 31, 48, 33, 34, 45, 35, 33, 49, 45, 37, 35, 30, 49, 43, 32]], [[0, 0, 0, 0, 0, 0, 0, 0, 0, 0, 0, 0, 0, 0, 0, 0, 0, 0, 0, 0, 0, 0, 0, 0], [0, 0, 0, 0, 0, 0, 0, 0, 0, 0, 0, 0, 0, 0, 0, 0, 0, 0, 0, 0, 0, 0, 0, 0], [0, 0, 0, 0, 0, 0, 0, 0, 0, 0, 0, 0, 0, 0, 0, 0, 0, 0, 0, 0, 0, 0, 0, 0], [45, 46, 32, 32, 35, 48, 41, 34, 48, 37, 40, 42, 30, 46, 42, 38, 49, 44, 41, 30, 49, 30, 41, 46], [32, 50, 45, 38, 37, 36, 45, 45, 50, 35, 43, 37, 31, 48, 50, 36, 42, 31, 49, 35, 50, 45, 45, 49], [35, 32, 41, 38, 39, 39, 42, 39, 41, 32, 50, 31, 50, 42, 32, 41, 32, 47, 35, 50, 44, 30, 30, 33], [49, 44, 37, 40, 47, 42, 37, 49, 42, 30, 37, 42, 43, 32, 45, 38, 50, 43, 44, 42, 50, 36, 39, 35], [30, 48, 48, 46, 45, 50, 50, 37, 46, 43, 40, 31, 36, 49, 44, 30, 30, 48, 50, 37, 32, 36, 48, 48]], [[0, 0, 0, 0, 0, 0, 0, 0, 0, 0, 0, 0, 0, 0, 0, 0, 0, 0, 0, 0, 0, 0, 0, 0], [0, 0, 0, 0, 0, 0, 0, 0, 0, 0, 0, 0, 0, 0, 0, 0, 0, 0, 0, 0, 0, 0, 0, 0], [0, 0, 0, 0, 0, 0, 0, 0, 0, 0, 0, 0, 0, 0, 0, 0, 0, 0, 0, 0, 0, 0, 0, 0], [0, 0, 0, 0, 0, 0, 0, 0, 0, 0, 0, 0, 0, 0, 0, 0, 0, 0, 0, 0, 0, 0, 0, 0], [47, 35, 44, 32, 44, 30, 47, 39, 39, 45, 30, 50, 37, 32, 42, 34, 48, 44, 43, 41, 37, 35, 44, 38], [33, 38, 39, 43, 38, 42, 45, 30, 40, 38, 48, 32, 36, 30, 48, 39, 34, 44, 33, 32, 41, 30, 32, 35], [45, 42, 39, 36, 32, 44, 42, 41, 47, 31, 46, 41, 47, 41, 32, 35, 37, 32, 44, 40, 30, 47, 33, 48], [46, 30, 30, 41, 32, 43, 38, 39, 35, 38, 40, 36, 46, 48, 31, 30, 46, 50, 32, 45, 47, 36, 45, 34]], [[0, 0, 0, 0, 0, 0, 0, 0, 0, 0, 0, 0, 0, 0, 0, 0, 0, 0, 0, 0, 0, 0, 0, 0], [0, 0, 0, 0, 0, 0, 0, 0, 0, 0, 0, 0, 0, 0, 0, 0, 0, 0, 0, 0, 0, 0, 0, 0], [0, 0, 0, 0, 0, 0, 0, 0, 0, 0, 0, 0, 0, 0, 0, 0, 0, 0, 0, 0, 0, 0, 0, 0], [0, 0, 0, 0, 0, 0, 0, 0, 0, 0, 0, 0, 0, 0, 0, 0, 0, 0, 0, 0, 0, 0, 0, 0], [0, 0, 0, 0, 0, 0, 0, 0, 0, 0, 0, 0, 0, 0, 0, 0, 0, 0, 0, 0, 0, 0, 0, 0], [44, 39, 48, 45, 39, 40, 36, 43, 40, 34, 38, 35, 48, 35, 31, 31, 49, 31, 40, 47, 39, 39, 42, 36], [45, 30, 32, 50, 33, 43, 46, 37, 42, 46, 49, 38, 47, 44, 39, 38, 32, 49, 48, 36, 34, 48, 43, 46], [49, 31, 48, 38, 47, 33, 42, 40, 36, 49, 42, 43, 46, 41, 36, 35, 31, 30, 43, 30, 44, 38, 46, 48]], [[0, 0, 0, 0, 0, 0, 0, 0, 0, 0, 0, 0, 0, 0, 0, 0, 0, 0, 0, 0, 0, 0, 0, 0], [0, 0, 0, 0, 0, 0, 0, 0, 0, 0, 0, 0, 0, 0, 0, 0, 0, 0, 0, 0, 0, 0, 0, 0], [0, 0, 0, 0, 0, 0, 0, 0, 0, 0, 0, 0, 0, 0, 0, 0, 0, 0, 0, 0, 0, 0, 0, 0], [0, 0, 0, 0, 0, 0, 0, 0, 0, 0, 0, 0, 0, 0, 0, 0, 0, 0, 0, 0, 0, 0, 0, 0], [0, 0, 0, 0, 0, 0, 0, 0, 0, 0, 0, 0, 0, 0, 0, 0, 0, 0, 0, 0, 0, 0, 0, 0], [0, 0, 0, 0, 0, 0, 0, 0, 0, 0, 0, 0, 0, 0, 0, 0, 0, 0, 0, 0, 0, 0, 0, 0], [48, 42, 49, 43, 36, 36, 33, 36, 30, 35, 50, 47, 38, 42, 46, 39, 50, 35, 46, 47, 45, 31, 31, 47], [39, 36, 39, 38, 43, 50, 47, 41, 50, 35, 34, 31, 34, 47, 31, 33, 34, 40, 48, 34, 39, 34, 47, 47]], [[0, 0, 0, 0, 0, 0, 0, 0, 0, 0, 0, 0, 0, 0, 0, 0, 0, 0, 0, 0, 0, 0, 0, 0], [0, 0, 0, 0, 0, 0, 0, 0, 0, 0, 0, 0, 0, 0, 0, 0, 0, 0, 0, 0, 0, 0, 0, 0], [0, 0, 0, 0, 0, 0, 0, 0, 0, 0, 0, 0, 0, 0, 0, 0, 0, 0, 0, 0, 0, 0, 0, 0], [0, 0, 0, 0, 0, 0, 0, 0, 0, 0, 0, 0, 0, 0, 0, 0, 0, 0, 0, 0, 0, 0, 0, 0], [0, 0, 0, 0, 0, 0, 0, 0, 0, 0, 0, 0, 0, 0, 0, 0, 0, 0, 0, 0, 0, 0, 0, 0], [0, 0, 0, 0, 0, 0, 0, 0, 0, 0, 0, 0, 0, 0, 0, 0, 0, 0, 0, 0, 0, 0, 0, 0], [0, 0, 0, 0, 0, 0, 0, 0, 0, 0, 0, 0, 0, 0, 0, 0, 0, 0, 0, 0, 0, 0, 0, 0], [41, 50, 41, 46, 41, 50, 37, 48, 34, 43, 35, 37, 31, 48, 34, 44, 31, 35, 45, 33, 39, 31, 30, 32]], [[0, 0, 0, 0, 0, 0, 0, 0, 0, 0, 0, 0, 0, 0, 0, 0, 0, 0, 0, 0, 0, 0, 0, 0], [0, 0, 0, 0, 0, 0, 0, 0, 0, 0, 0, 0, 0, 0, 0, 0, 0, 0, 0, 0, 0, 0, 0, 0], [0, 0, 0, 0, 0, 0, 0, 0, 0, 0, 0, 0, 0, 0, 0, 0, 0, 0, 0, 0, 0, 0, 0, 0], [0, 0, 0, 0, 0, 0, 0, 0, 0, 0, 0, 0, 0, 0, 0, 0, 0, 0, 0, 0, 0, 0, 0, 0], [0, 0, 0, 0, 0, 0, 0, 0, 0, 0, 0, 0, 0, 0, 0, 0, 0, 0, 0, 0, 0, 0, 0, 0], [0, 0, 0, 0, 0, 0, 0, 0, 0, 0, 0, 0, 0, 0, 0, 0, 0, 0, 0, 0, 0, 0, 0, 0], [0, 0, 0, 0, 0, 0, 0, 0, 0, 0, 0, 0, 0, 0, 0, 0, 0, 0, 0, 0, 0, 0, 0, 0], [0, 0, 0, 0, 0, 0, 0, 0, 0, 0, 0, 0, 0, 0, 0, 0, 0, 0, 0, 0, 0, 0, 0, 0]]];

q = [[[6], [17], [16], [17], [6], [7], [7], [23], [6], [23], [13], [17], [15], [17], [5], [21], [18], [23], [21], [10], [8], [12], [10], [8]], [[10], [17], [5], [24], [23], [5], [14], [10], [17], [14], [18], [10], [21], [14], [6], [9], [9], [15], [8], [10], [24], [20], [18], [14]], [[18], [7], [5], [15], [14], [8], [12], [21], [7], [7], [25], [13], [11], [25], [7], [19], [7], [6], [11], [24], [21], [5], [20], [20]], [[5], [13], [13], [6], [6], [18], [19], [7], [19], [6], [9], [12], [12], [14], [16], [18], [21], [8], [5], [10], [17], [8], [11], [8]], [[8], [8], [25], [8], [23], [13], [9], [23], [21], [22], [7], [17], [14], [22], [19], [12], [17], [5], [13], [12], [19], [14], [12], [20]], [[12], [17], [15], [21], [18], [21], [15], [24], [22], [17], [10], [13], [20], [22], [21], [12], [13], [18], [8], [24], [12], [8], [17], [5]], [[7], [15], [12], [18], [17], [7], [16], [19], [16], [24], [18], [16], [21], [7], [5], [17], [12], [6], [14], [23], [9], [11], [23], [12]], [[25], [24], [22], [12], [7], [23], [24], [8], [18], [22], [18], [11], [6], [5], [25], [16], [20], [25], [7], [17], [15], [20], [16], [20]]];
Q = [[32], [33], [32], [28], [36], [38], [34], [40]];
